; LT ISZERO ISZERO => LT
(set-option :produce-proofs true)
; 
(set-info :status unknown)
(declare-fun storage_t ((_ BitVec 256) (_ BitVec 256) Int (_ BitVec 256)) (_ BitVec 256))
(declare-fun storage_s ((_ BitVec 256) (_ BitVec 256) Int (_ BitVec 256)) (_ BitVec 256))
(declare-fun exc_halt_t (Int) Bool)
(declare-fun exc_halt_s (Int) Bool)
(declare-fun sc_t (Int) (_ BitVec 6))
(declare-fun stack_t ((_ BitVec 256) (_ BitVec 256) Int (_ BitVec 6)) (_ BitVec 256))
(declare-fun stack_s ((_ BitVec 256) (_ BitVec 256) Int (_ BitVec 6)) (_ BitVec 256))
(declare-fun sc_s (Int) (_ BitVec 6))
(declare-fun used_gas_t ((_ BitVec 256) (_ BitVec 256) Int) Int)
(declare-fun used_gas_s ((_ BitVec 256) (_ BitVec 256) Int) Int)
(assert
 (exists ((x_0 (_ BitVec 256)) (x_1 (_ BitVec 256)) )(let (($x4478 (forall ((w (_ BitVec 256)) )(let ((?x10377 (storage_t x_0 x_1 1 w)))
 (let ((?x4370 (storage_s x_0 x_1 3 w)))
 (= ?x4370 ?x10377))))
 ))
 (let (($x8377 (exc_halt_t 1)))
 (let (($x292 (exc_halt_s 3)))
 (let (($x6716 (= $x292 $x8377)))
 (let (($x11224 (forall ((n (_ BitVec 6)) )(let ((?x7154 (sc_t 1)))
 (let (($x9289 (bvsle ?x7154 n)))
 (let ((?x7799 (stack_t x_0 x_1 1 n)))
 (let ((?x9552 (stack_s x_0 x_1 3 n)))
 (let (($x6719 (= ?x9552 ?x7799)))
 (or $x6719 $x9289)))))))
 ))
 (let ((?x7154 (sc_t 1)))
 (let ((?x275 (sc_s 3)))
 (let (($x7015 (= ?x275 ?x7154)))
 (let ((?x5662 (used_gas_t x_0 x_1 0)))
 (let ((?x8481 (used_gas_s x_0 x_1 0)))
 (let (($x9166 (= ?x8481 ?x5662)))
 (let (($x4241 (forall ((w (_ BitVec 256)) )(let ((?x11686 (storage_t x_0 x_1 0 w)))
 (let ((?x6799 (storage_s x_0 x_1 0 w)))
 (= ?x6799 ?x11686))))
 ))
 (let (($x56 (exc_halt_t 0)))
 (let (($x57 (exc_halt_s 0)))
 (let (($x58 (= $x57 $x56)))
 (let (($x11396 (forall ((n (_ BitVec 6)) )(let ((?x63 (sc_t 0)))
 (let (($x6552 (bvsle ?x63 n)))
 (let ((?x1249 (stack_t x_0 x_1 0 n)))
 (let ((?x6279 (stack_s x_0 x_1 0 n)))
 (let (($x1279 (= ?x6279 ?x1249)))
 (or $x1279 $x6552)))))))
 ))
 (let ((?x63 (sc_t 0)))
 (let ((?x72 (sc_s 0)))
 (let (($x73 (= ?x72 ?x63)))
 (let (($x8963 (= $x8377 (or $x56 (not (bvsle (_ bv0 6) (bvadd (_ bv62 6) ?x63)))))))
 (let (($x2870 (forall ((w (_ BitVec 256)) )(let ((?x11686 (storage_t x_0 x_1 0 w)))
 (let ((?x10377 (storage_t x_0 x_1 1 w)))
 (= ?x10377 ?x11686))))
 ))
 (let (($x11825 (forall ((n (_ BitVec 6)) )(let ((?x63 (sc_t 0)))
 (let ((?x816 (bvadd (_ bv62 6) ?x63)))
 (let (($x1110 (bvsle ?x816 n)))
 (or $x1110 (= (stack_t x_0 x_1 1 n) (stack_t x_0 x_1 0 n)))))))
 ))
 (let ((?x11871 (bvadd (_ bv63 6) ?x63)))
 (let (($x4653 (= ?x7154 ?x11871)))
 (let (($x2174 (bvule (stack_t x_0 x_1 0 (bvadd (_ bv62 6) ?x63)) (stack_t x_0 x_1 0 ?x11871))))
 (let (($x6355 (= $x292 (or (exc_halt_s 2) (not (bvsle (_ bv0 6) (bvadd (_ bv63 6) (sc_s 2))))))))
 (let (($x7841 (forall ((w (_ BitVec 256)) )(let ((?x1731 (storage_s x_0 x_1 2 w)))
 (let ((?x4370 (storage_s x_0 x_1 3 w)))
 (= ?x4370 ?x1731))))
 ))
 (let (($x4320 (forall ((n (_ BitVec 6)) )(let ((?x218 (sc_s 2)))
 (let ((?x9412 (bvadd (_ bv63 6) ?x218)))
 (let (($x7633 (bvsle ?x9412 n)))
 (or (= (stack_s x_0 x_1 3 n) (stack_s x_0 x_1 2 n)) $x7633)))))
 ))
 (let ((?x218 (sc_s 2)))
 (let (($x530 (= ?x275 ?x218)))
 (let (($x8694 (= (used_gas_s x_0 x_1 3) (+ 3 (used_gas_s x_0 x_1 2)))))
 (let (($x9503 (= (stack_s x_0 x_1 3 (bvadd (_ bv63 6) ?x275)) (ite (= (stack_s x_0 x_1 2 (bvadd (_ bv63 6) ?x218)) (_ bv0 256)) (_ bv1 256) (_ bv0 256)))))
 (let (($x247 (exc_halt_s 2)))
 (let (($x7363 (= $x247 (or (exc_halt_s 1) (not (bvsle (_ bv0 6) (bvadd (_ bv63 6) (sc_s 1))))))))
 (let (($x1533 (forall ((w (_ BitVec 256)) )(let ((?x7581 (storage_s x_0 x_1 1 w)))
 (let ((?x1731 (storage_s x_0 x_1 2 w)))
 (= ?x1731 ?x7581))))
 ))
 (let (($x5595 (forall ((n (_ BitVec 6)) )(let ((?x154 (sc_s 1)))
 (let ((?x2167 (bvadd (_ bv63 6) ?x154)))
 (let (($x1626 (bvsle ?x2167 n)))
 (or $x1626 (= (stack_s x_0 x_1 2 n) (stack_s x_0 x_1 1 n)))))))
 ))
 (let ((?x154 (sc_s 1)))
 (let (($x675 (= ?x218 ?x154)))
 (let ((?x753 (used_gas_s x_0 x_1 2)))
 (let ((?x9412 (bvadd (_ bv63 6) ?x218)))
 (let ((?x2801 (stack_s x_0 x_1 2 ?x9412)))
 (let (($x3589 (= ?x2801 (ite (= (stack_s x_0 x_1 1 (bvadd (_ bv63 6) ?x154)) (_ bv0 256)) (_ bv1 256) (_ bv0 256)))))
 (let (($x10137 (forall ((w (_ BitVec 256)) )(let ((?x6799 (storage_s x_0 x_1 0 w)))
 (let ((?x7581 (storage_s x_0 x_1 1 w)))
 (= ?x7581 ?x6799))))
 ))
 (let (($x8514 (forall ((n (_ BitVec 6)) )(let ((?x72 (sc_s 0)))
 (let ((?x1090 (bvadd (_ bv62 6) ?x72)))
 (let (($x2785 (bvsle ?x1090 n)))
 (or $x2785 (= (stack_s x_0 x_1 1 n) (stack_s x_0 x_1 0 n)))))))
 ))
 (let (($x7434 (bvule (stack_s x_0 x_1 0 (bvadd (_ bv62 6) ?x72)) (stack_s x_0 x_1 0 (bvadd (_ bv63 6) ?x72)))))
 (let ((?x2167 (bvadd (_ bv63 6) ?x154)))
 (let ((?x9929 (stack_s x_0 x_1 1 ?x2167)))
 (let (($x11311 (forall ((w (_ BitVec 256)) )(let ((?x6799 (storage_s x_0 x_1 0 w)))
 (= ?x6799 (_ bv0 256))))
 ))
 (let (($x1554 (= ?x8481 0)))
 (let (($x7449 (not $x57)))
 (let (($x2303 (= (stack_s x_0 x_1 0 (_ bv1 6)) x_1)))
 (let (($x1371 (= (stack_s x_0 x_1 0 (_ bv0 6)) x_0)))
 (let (($x11128 (= ?x72 (_ bv2 6))))
 (and $x11128 $x1371 $x2303 $x7449 $x1554 $x11311 (= ?x9929 (ite $x7434 (_ bv0 256) (_ bv1 256))) (= (used_gas_s x_0 x_1 1) (+ 3 ?x8481)) (= ?x154 (bvadd (_ bv63 6) ?x72)) $x8514 $x10137 (= (exc_halt_s 1) (or $x57 (not (bvsle (_ bv0 6) (bvadd (_ bv62 6) ?x72))))) $x3589 (= ?x753 (+ 3 (used_gas_s x_0 x_1 1))) $x675 $x5595 $x1533 $x7363 $x9503 $x8694 $x530 $x4320 $x7841 $x6355 (= (stack_t x_0 x_1 1 (bvadd (_ bv63 6) ?x7154)) (ite $x2174 (_ bv0 256) (_ bv1 256))) (= (used_gas_t x_0 x_1 1) (+ 3 ?x5662)) $x4653 $x11825 $x2870 $x8963 $x73 $x11396 $x58 $x4241 $x9166 (not (and $x7015 $x11224 $x6716 $x4478)))))))))))))))))))))))))))))))))))))))))))))))))))))))))
 )
(check-sat)
(get-proof)
